
Gurobi 11.0.2 (win64) logging started Mon Aug 19 17:20:19 2024

Set parameter LogFile to value "D:\Documenti\Scuola\Laurea magistrale unibs\laurea-unibs-mkfsp\output\2024-08-19T13_57_45.433552\logs\instance09_bucket4.log"
Set parameter TimeLimit to value 400
Set parameter MIPGap to value 0
Gurobi Optimizer version 11.0.2 build v11.0.2rc0 (win64 - Windows 10.0 (19045.2))

CPU model: Intel(R) Core(TM) i5-4670 CPU @ 3.40GHz, instruction set [SSE2|AVX|AVX2]
Thread count: 4 physical cores, 4 logical processors, using up to 4 threads

Optimize a model with 5018 rows, 25228 columns and 709654 nonzeros
Model fingerprint: 0xff8d9ee3
Variable types: 0 continuous, 25228 integer (25034 binary)
Coefficient statistics:
  Matrix range     [1e+00, 9e+03]
  Objective range  [6e+02, 9e+03]
  Bounds range     [1e+00, 1e+00]
  RHS range        [1e+00, 1e+06]
Found heuristic solution: objective 954573.00000
Presolve time: 1.53s
Presolved: 5018 rows, 25228 columns, 709654 nonzeros
Variable types: 0 continuous, 25228 integer (25034 binary)
Found heuristic solution: objective 1026469.0000
Deterministic concurrent LP optimizer: primal simplex, dual simplex, and barrier
Showing barrier log only...

Root barrier log...

Ordering time: 0.07s

Barrier statistics:
 AA' NZ     : 7.601e+05
 Factor NZ  : 8.944e+05 (roughly 17 MB of memory)
 Factor Ops : 4.146e+08 (less than 1 second per iteration)
 Threads    : 2

Barrier performed 0 iterations in 2.16 seconds (1.76 work units)
Barrier solve interrupted - model solved by another algorithm

Concurrent spin time: 0.15s (can be avoided by choosing Method=3)

Solved with dual simplex

Root relaxation: objective 1.134224e+06, 1480 iterations, 0.57 seconds (0.36 work units)

    Nodes    |    Current Node    |     Objective Bounds      |     Work
 Expl Unexpl |  Obj  Depth IntInf | Incumbent    BestBd   Gap | It/Node Time

H    0     0                    1134224.0000 1134224.00  0.00%     -    2s
     0     0 1134224.00    0 1123 1134224.00 1134224.00  0.00%     -    2s

Explored 1 nodes (1480 simplex iterations) in 2.24 seconds (1.78 work units)
Thread count was 4 (of 4 available processors)

Solution count 3: 1.13422e+06 1.02647e+06 954573 

Optimal solution found (tolerance 0.00e+00)
Best objective 1.134224000000e+06, best bound 1.134224000000e+06, gap 0.0000%
